
******************************************************************************
This program contains Ipopt, a library for large-scale nonlinear optimization.
 Ipopt is released as open source code under the Eclipse Public License (EPL).
         For more information visit http://projects.coin-or.org/Ipopt

This version of Ipopt was compiled from source code available at
    https://github.com/IDAES/Ipopt as part of the Institute for the Design of
    Advanced Energy Systems Process Systems Engineering Framework (IDAES PSE
    Framework) Copyright (c) 2018-2019. See https://github.com/IDAES/idaes-pse.

This version of Ipopt was compiled using HSL, a collection of Fortran codes
    for large-scale scientific computation.  All technical papers, sales and
    publicity material resulting from use of the HSL codes within IPOPT must
    contain the following acknowledgement:
        HSL, a collection of Fortran codes for large-scale scientific
        computation. See http://www.hsl.rl.ac.uk.
******************************************************************************

This is Ipopt version 3.13.2, running with linear solver ma27.

Number of nonzeros in equality constraint Jacobian...:      808
Number of nonzeros in inequality constraint Jacobian.:        0
Number of nonzeros in Lagrangian Hessian.............:      702

Total number of variables............................:      351
                     variables with only lower bounds:      108
                variables with lower and upper bounds:      189
                     variables with only upper bounds:        0
Total number of equality constraints.................:      350
Total number of inequality constraints...............:        0
        inequality constraints with only lower bounds:        0
   inequality constraints with lower and upper bounds:        0
        inequality constraints with only upper bounds:        0

iter    objective    inf_pr   inf_du lg(mu)  ||d||  lg(rg) alpha_du alpha_pr  ls
   0  0.0000000e+00 9.35e-01 1.78e-15  -1.0 0.00e+00    -  0.00e+00 0.00e+00   0
   1  8.2283399e-01 1.96e-01 9.56e+02  -1.0 6.30e+04    -  9.00e-01 9.90e-01h  1
   2  8.8962476e-01 2.34e-02 2.36e+02  -1.0 3.15e+03    -  7.54e-01 9.90e-01h  1
   3  8.9043481e-01 8.89e-04 2.48e+01  -1.0 3.92e+01    -  9.90e-01 9.90e-01h  1
   4  8.9714637e-01 2.93e-04 3.71e+04  -1.0 4.10e+03    -  9.86e-01 9.90e-01H  1
   5  9.2798076e-01 1.76e-04 2.55e+03  -1.0 9.43e+03    -  9.90e-01 9.90e-01H  1
   6  9.0702335e-01 1.97e-03 6.41e+07  -3.8 1.10e+04    -  9.26e-01 5.00e-01f  2
   7  8.8923376e-01 1.73e-03 1.12e+04  -3.8 8.97e+03    -  1.00e+00 1.00e+00H  1
In iteration 7, 27 Slacks too small, adjusting variable bounds
   8  8.8792155e-01 7.35e-04 3.01e+08  -3.8 2.39e+03    -  1.00e+00 1.00e+00h  1
   9  8.8780327e-01 8.26e-05 1.53e-02  -3.8 7.71e+02    -  1.00e+00 1.00e+00h  1
iter    objective    inf_pr   inf_du lg(mu)  ||d||  lg(rg) alpha_du alpha_pr  ls
  10  8.8779767e-01 6.74e-06 8.85e-04  -5.7 1.97e+02    -  1.00e+00 1.00e+00h  1
  11  8.8779765e-01 9.21e-09 1.32e-06  -8.6 7.80e+00    -  1.00e+00 1.00e+00h  1
  12  8.8779765e-01 4.20e-13 1.19e-12  -8.6 1.04e-02    -  1.00e+00 1.00e+00h  1

Number of Iterations....: 12

                                   (scaled)                 (unscaled)
Objective...............:   8.8779764604148315e-01    8.8779764604148315e-01
Dual infeasibility......:   1.1920318148462776e-12    1.1920318148462776e-12
Constraint violation....:   4.1988634791323420e-13    4.1988634791323420e-13
Complementarity.........:   2.5059316792851318e-09    2.5059316792851318e-09
Overall NLP error.......:   1.8802737141049656e-10    2.5059316792851318e-09


Number of objective function evaluations             = 24
Number of objective gradient evaluations             = 13
Number of equality constraint evaluations            = 24
Number of inequality constraint evaluations          = 0
Number of equality constraint Jacobian evaluations   = 13
Number of inequality constraint Jacobian evaluations = 0
Number of Lagrangian Hessian evaluations             = 12
Total CPU secs in IPOPT (w/o function evaluations)   =      0.035
Total CPU secs in NLP function evaluations           =      0.296

EXIT: Optimal Solution Found.
